<?xml version = "1.0" standalone="yes"?>
<!-- This file has been generated by DOcplex version 2.23.222  -->
<CPLEXSolution version="1.0">
 <header
   problemName="CVRP"
   objectiveValue="10473.4"
  />
 <variables>
  <variable name="x_0_6" index="5" value="1.00000"/>
  <variable name="x_0_8" index="7" value="1.00000"/>
  <variable name="x_0_9" index="8" value="1.00000"/>
  <variable name="x_0_11" index="10" value="1.00000"/>
  <variable name="x_0_12" index="11" value="1.00000"/>
  <variable name="x_0_15" index="14" value="1.00000"/>
  <variable name="x_0_16" index="15" value="1.00000"/>
  <variable name="x_0_17" index="16" value="1.00000"/>
  <variable name="x_0_20" index="19" value="1.00000"/>
  <variable name="x_0_23" index="22" value="1.00000"/>
  <variable name="x_1_22" index="44" value="1.00000"/>
  <variable name="x_2_3" index="48" value="1.00000"/>
  <variable name="x_3_0" index="69" value="1.00000"/>
  <variable name="x_4_0" index="92" value="1.00000"/>
  <variable name="x_5_0" index="115" value="1.00000"/>
  <variable name="x_6_1" index="139" value="1.00000"/>
  <variable name="x_7_0" index="161" value="1.00000"/>
  <variable name="x_8_2" index="186" value="1.00000"/>
  <variable name="x_9_21" index="227" value="1.00000"/>
  <variable name="x_10_5" index="235" value="1.00000"/>
  <variable name="x_11_18" index="270" value="1.00000"/>
  <variable name="x_12_14" index="289" value="1.00000"/>
  <variable name="x_13_0" index="299" value="1.00000"/>
  <variable name="x_14_4" index="326" value="1.00000"/>
  <variable name="x_15_19" index="363" value="1.00000"/>
  <variable name="x_16_0" index="368" value="1.00000"/>
  <variable name="x_17_0" index="391" value="1.00000"/>
  <variable name="x_18_0" index="414" value="1.00000"/>
  <variable name="x_19_7" index="444" value="1.00000"/>
  <variable name="x_20_13" index="473" value="1.00000"/>
  <variable name="x_21_0" index="483" value="1.00000"/>
  <variable name="x_22_10" index="516" value="1.00000"/>
  <variable name="x_23_0" index="529" value="1.00000"/>
  <variable name="u_1" index="552" value="4.00000"/>
  <variable name="u_2" index="553" value="44.00000"/>
  <variable name="u_3" index="554" value="45.00000"/>
  <variable name="u_4" index="555" value="38.00000"/>
  <variable name="u_5" index="556" value="43.00000"/>
  <variable name="u_6" index="557" value="2.00000"/>
  <variable name="u_7" index="558" value="45.00000"/>
  <variable name="u_8" index="559" value="43.00000"/>
  <variable name="u_9" index="560" value="29.00000"/>
  <variable name="u_10" index="561" value="20.00000"/>
  <variable name="u_11" index="562" value="30.00000"/>
  <variable name="u_12" index="563" value="2.00000"/>
  <variable name="u_13" index="564" value="45.00000"/>
  <variable name="u_14" index="565" value="14.00000"/>
  <variable name="u_15" index="566" value="22.00000"/>
  <variable name="u_16" index="567" value="35.00000"/>
  <variable name="u_17" index="568" value="45.00000"/>
  <variable name="u_18" index="569" value="43.00000"/>
  <variable name="u_19" index="570" value="40.00000"/>
  <variable name="u_20" index="571" value="5.00000"/>
  <variable name="u_21" index="572" value="45.00000"/>
  <variable name="u_22" index="573" value="10.00000"/>
  <variable name="u_23" index="574" value="45.00000"/>
 </variables>
</CPLEXSolution>
